peakDumbCharging = 7400; 
Machine = anon_enum(16); 
machineSpeed = [3700,3700,3700,3700,3700,3700,3700,3700,3700,3700,3700,3700,3700,3700,3700,3700]; 
machineLoad = [3700,3700,3700,3700,3700,3700,3700,3700,3700,3700,3700,3700,3700,3700,3700,3700]; 
Car = anon_enum(5); 
demandCar = [3680,36960,6720,760,15480]; 
arrivalCar = [74,50,49,46,40]; 
departureCar = [76,62,53,47,46]; 
